Maximize
  50 x_bikes + 43 x_scooters
Subject To
  c1: x_bikes + x_scooters <= 40
  c2: 5 x_bikes + 6 x_scooters <= 230
  c3: 7 x_scooters + 10 x_bikes >= 320
  c4: x_scooters >= 5
Integer
  x_bikes x_scooters
End